c This file is generated by _findSolu
c Generated on Mon Nov  9 21:31:37 2015
p cnf 26 62
-1 -3 -13 0
1 13 0
3 13 0
-3 -4 -10 0
3 10 0
4 10 0
-2 -10 -12 0
2 12 0
10 12 0
-5 -10 -11 0
5 11 0
10 11 0
-16 -12 -8 0
16 8 0
12 8 0
-12 -11 -9 0
12 9 0
11 9 0
6 14 0
-6 -14 0
7 15 0
-7 -15 0
-1 -14 17 0
1 -17 0
14 -17 0
-1 -6 18 0
1 -18 0
6 -18 0
-1 -14 19 0
1 -19 0
14 -19 0
-13 -6 20 0
13 -20 0
6 -20 0
-17 -15 21 0
17 -21 0
15 -21 0
-18 -7 22 0
18 -22 0
7 -22 0
-19 -15 23 0
19 -23 0
15 -23 0
-20 -7 24 0
20 -24 0
7 -24 0
21 22 -25 0
-21 25 0
-22 25 0
23 25 -26 0
-23 26 0
-25 26 0
26 24 -16 0
-26 16 0
-24 16 0
-1 0
-2 0
3 0
-4 0
-5 0
-8 0
-9 0
